NPROCS=0
This instance is clustered!
Gurobi Optimizer version 9.0.0 build v9.0.0rc2 (linux64)
Optimize a model with 20 rows, 101 columns and 200 nonzeros
Model fingerprint: 0xc2506896
Variable types: 1 continuous, 100 integer (100 binary)
Coefficient statistics:
  Matrix range     [1e+00, 1e+00]
  Objective range  [1e+00, 7e+01]
  Bounds range     [1e+00, 1e+00]
  RHS range        [1e+00, 1e+00]
Presolve removed 2 rows and 27 columns
Presolve time: 0.00s
Presolved: 18 rows, 74 columns, 146 nonzeros
Variable types: 1 continuous, 73 integer (73 binary)

Root relaxation: objective 9.170490e+01, 15 iterations, 0.00 seconds

    Nodes    |    Current Node    |     Objective Bounds      |     Work
 Expl Unexpl |  Obj  Depth IntInf | Incumbent    BestBd   Gap | It/Node Time

     0     0  162.89081    0   15          -  162.89081      -     -    0s
H    0     0                     235.8913229  162.89081  30.9%     -    0s
     0     0  164.47780    0    6  235.89132  164.47780  30.3%     -    0s
H    0     0                     173.8095338  164.47780  5.37%     -    0s
     0     0  165.28089    0   14  173.80953  165.28089  4.91%     -    0s
     0     0  166.37289    0   25  173.80953  166.37289  4.28%     -    0s
     0     0  166.37289    0   25  173.80953  166.37289  4.28%     -    0s
     0     0  170.97130    0   21  173.80953  170.97130  1.63%     -    0s
H    0     0                     173.5346341  170.97130  1.48%     -    0s
     0     0  170.97130    0   21  173.53463  170.97130  1.48%     -    0s
     0     0  170.97130    0   20  173.53463  170.97130  1.48%     -    0s
     0     0  170.97130    0   20  173.53463  170.97130  1.48%     -    0s
     0     0  170.97130    0   18  173.53463  170.97130  1.48%     -    0s
     0     0  170.97130    0   17  173.53463  170.97130  1.48%     -    0s
     0     0  170.97130    0   17  173.53463  170.97130  1.48%     -    0s
     0     0  170.97130    0   19  173.53463  170.97130  1.48%     -    0s
     0     0  170.97130    0   19  173.53463  170.97130  1.48%     -    0s
     0     0  170.97130    0   17  173.53463  170.97130  1.48%     -    0s
     0     0  170.97130    0   15  173.53463  170.97130  1.48%     -    0s
     0     0  170.97130    0   11  173.53463  170.97130  1.48%     -    0s
     0     0  170.97130    0   11  173.53463  170.97130  1.48%     -    0s
     0     0  170.97130    0   11  173.53463  170.97130  1.48%     -    0s
     0     0  170.97130    0    6  173.53463  170.97130  1.48%     -    0s
     0     0  170.97130    0   11  173.53463  170.97130  1.48%     -    0s
     0     0  170.97130    0   11  173.53463  170.97130  1.48%     -    0s
     0     0  170.97130    0   11  173.53463  170.97130  1.48%     -    0s
     0     0  170.97130    0    6  173.53463  170.97130  1.48%     -    0s
     0     0  171.65419    0    2  173.53463  171.65419  1.08%     -    0s
     0     0  172.92385    0    2  173.53463  172.92385  0.35%     -    0s
     0     0     cutoff    0       173.53463  173.53463  0.00%     -    0s

Cutting planes:
  Gomory: 3
  MIR: 2
  RLT: 1

Explored 1 nodes (158 simplex iterations) in 0.07 seconds
Thread count was 12 (of 12 available processors)

Solution count 3: 173.535 173.81 235.891 

Optimal solution found (tolerance 1.00e-04)
Best objective 1.735346340749e+02, best bound 1.735346340749e+02, gap 0.0000%

User-callback calls 216, time in user-callback 0.00 sec
/projects/academic/josewalt/caigao/RRARP_BD/BendersDecomp/ret/model_outs/n_8_e_3_algo_3.out
 =====>>>>> Solution is written to file in <../ret/model_outs> !!!
===>> All Done!
